c Generated by CellRouter, look at JSON variable remapping
p cnf 100 650
29 0 
44 0 
59 -72 0 
-59 72 0 
-68 -62 -14 0 
68 62 -14 0 
68 -62 14 0 
-68 62 14 0 
-2 -1 -66 0 
2 1 -66 0 
2 -1 66 0 
-2 1 66 0 
-14 -62 -11 0 
14 62 -11 0 
14 -62 11 0 
-14 62 11 0 
-74 -56 -90 0 
-25 -56 -90 0 
-25 -74 -90 0 
-25 -74 -56 0 
25 74 56 -90 0 
25 74 -56 90 0 
25 -74 56 90 0 
-25 74 56 90 0 
-38 -65 -24 0 
-7 -65 -24 0 
-7 -38 -24 0 
-7 -38 -65 0 
7 38 65 -24 0 
7 38 -65 24 0 
7 -38 65 24 0 
-7 38 65 24 0 
-58 -40 -65 0 
-38 -40 -65 0 
-38 -58 -65 0 
-38 -58 -40 0 
38 58 40 -65 0 
38 58 -40 65 0 
38 -58 40 65 0 
-38 58 40 65 0 
-91 -28 -18 0 
91 28 -18 0 
91 -28 18 0 
-91 28 18 0 
-1 -46 -45 0 
1 46 -45 0 
1 -46 45 0 
-1 46 45 0 
-13 -16 -39 0 
-40 -16 -39 0 
-40 -13 -39 0 
-40 -13 -16 0 
40 13 16 -39 0 
40 13 -16 39 0 
40 -13 16 39 0 
-40 13 16 39 0 
-74 -11 -56 0 
74 11 -56 0 
74 -11 56 0 
-74 11 56 0 
-3 -76 -67 0 
-26 -76 -67 0 
-26 -3 -67 0 
-26 -3 -76 0 
26 3 76 -67 0 
26 3 -76 67 0 
26 -3 76 67 0 
-26 3 76 67 0 
-20 -52 -97 0 
-94 -52 -97 0 
-94 -20 -97 0 
-94 -20 -52 0 
94 20 52 -97 0 
94 20 -52 97 0 
94 -20 52 97 0 
-94 20 52 97 0 
-60 -27 -58 0 
-78 -27 -58 0 
-78 -60 -58 0 
-78 -60 -27 0 
78 60 27 -58 0 
78 60 -27 58 0 
78 -60 27 58 0 
-78 60 27 58 0 
-91 -18 -96 0 
-69 -18 -96 0 
-69 -91 -96 0 
-69 -91 -18 0 
69 91 18 -96 0 
69 91 -18 96 0 
69 -91 18 96 0 
-69 91 18 96 0 
-21 -9 -13 0 
-27 -9 -13 0 
-27 -21 -13 0 
-27 -21 -9 0 
27 21 9 -13 0 
27 21 -9 13 0 
27 -21 9 13 0 
-27 21 9 13 0 
-49 -35 -43 0 
49 35 -43 0 
49 -35 43 0 
-49 35 43 0 
-4 -26 -47 0 
-37 -26 -47 0 
-37 -4 -47 0 
-37 -4 -26 0 
37 4 26 -47 0 
37 4 -26 47 0 
37 -4 26 47 0 
-37 4 26 47 0 
-68 -14 -54 0 
-9 -14 -54 0 
-9 -68 -54 0 
-9 -68 -14 0 
9 68 14 -54 0 
9 68 -14 54 0 
9 -68 14 54 0 
-9 68 14 54 0 
-81 -92 -35 0 
-49 -92 -35 0 
-49 -81 -35 0 
-49 -81 -92 0 
49 81 92 -35 0 
49 81 -92 35 0 
49 -81 92 35 0 
-49 81 92 35 0 
10 -73 0 
-10 73 0 
-12 -3 -26 0 
-4 -3 -26 0 
-4 -12 -26 0 
-4 -12 -3 0 
4 12 3 -26 0 
4 12 -3 26 0 
4 -12 3 26 0 
-4 12 3 26 0 
-22 -41 -19 0 
-77 -41 -19 0 
-77 -22 -19 0 
-77 -22 -41 0 
77 22 41 -19 0 
77 22 -41 19 0 
77 -22 41 19 0 
-77 22 41 19 0 
-9 -54 -16 0 
-13 -54 -16 0 
-13 -9 -16 0 
-13 -9 -54 0 
13 9 54 -16 0 
13 9 -54 16 0 
13 -9 54 16 0 
-13 9 54 16 0 
-32 -77 -19 0 
32 77 -19 0 
32 -77 19 0 
-32 77 19 0 
-50 -88 -99 0 
-79 -88 -99 0 
-79 -50 -99 0 
-79 -50 -88 0 
79 50 88 -99 0 
79 50 -88 99 0 
79 -50 88 99 0 
-79 50 88 99 0 
-27 -13 -40 0 
-58 -13 -40 0 
-58 -27 -40 0 
-58 -27 -13 0 
58 27 13 -40 0 
58 27 -13 40 0 
58 -27 13 40 0 
-58 27 13 40 0 
-30 -69 -41 0 
-22 -69 -41 0 
-22 -30 -41 0 
-22 -30 -69 0 
22 30 69 -41 0 
22 30 -69 41 0 
22 -30 69 41 0 
-22 30 69 41 0 
-10 -73 -61 0 
-71 -73 -61 0 
-71 -10 -61 0 
-71 -10 -73 0 
71 10 73 -61 0 
71 10 -73 61 0 
71 -10 73 61 0 
-71 10 73 61 0 
-72 -51 -32 0 
72 51 -32 0 
72 -51 32 0 
-72 51 32 0 
-53 -84 -82 0 
53 84 -82 0 
53 -84 82 0 
-53 84 82 0 
15 57 0 
-15 -57 0 
-52 -100 -84 0 
-97 -100 -84 0 
-97 -52 -84 0 
-97 -52 -100 0 
97 52 100 -84 0 
97 52 -100 84 0 
97 -52 100 84 0 
-97 52 100 84 0 
-98 -28 -91 0 
-42 -28 -91 0 
-42 -98 -91 0 
-42 -98 -28 0 
42 98 28 -91 0 
42 98 -28 91 0 
42 -98 28 91 0 
-42 98 28 91 0 
-46 -10 -71 0 
46 10 -71 0 
46 -10 71 0 
-46 10 71 0 
-65 -64 -5 0 
-24 -64 -5 0 
-24 -65 -5 0 
-24 -65 -64 0 
24 65 64 -5 0 
24 65 -64 5 0 
24 -65 64 5 0 
-24 65 64 5 0 
-57 -83 -48 0 
57 83 -48 0 
57 -83 48 0 
-57 83 48 0 
-83 -38 -7 0 
-48 -38 -7 0 
-48 -83 -7 0 
-48 -83 -38 0 
48 83 38 -7 0 
48 83 -38 7 0 
48 -83 38 7 0 
-48 83 38 7 0 
-55 -85 -89 0 
55 85 -89 0 
55 -85 89 0 
-55 85 89 0 
-8 -98 -42 0 
-33 -98 -42 0 
-33 -8 -42 0 
-33 -8 -98 0 
33 8 98 -42 0 
33 8 -98 42 0 
33 -8 98 42 0 
-33 8 98 42 0 
-99 -95 -76 0 
-3 -95 -76 0 
-3 -99 -76 0 
-3 -99 -95 0 
3 99 95 -76 0 
3 99 -95 76 0 
3 -99 95 76 0 
-3 99 95 76 0 
-54 -74 -25 0 
-16 -74 -25 0 
-16 -54 -25 0 
-16 -54 -74 0 
16 54 74 -25 0 
16 54 -74 25 0 
16 -54 74 25 0 
-16 54 74 25 0 
-15 -60 -78 0 
15 60 -78 0 
15 -60 78 0 
-15 60 78 0 
-29 -81 -49 0 
29 81 -49 0 
29 -81 49 0 
-29 81 49 0 
-63 -96 -44 0 
63 96 -44 0 
63 -96 44 0 
-63 96 44 0 
-100 -75 -17 0 
100 75 -17 0 
100 -75 17 0 
-100 75 17 0 
-66 -50 -79 0 
-92 -50 -79 0 
-92 -66 -79 0 
-92 -66 -50 0 
92 66 50 -79 0 
92 66 -50 79 0 
92 -66 50 79 0 
-92 66 50 79 0 
-80 -93 -85 0 
-70 -93 -85 0 
-70 -80 -85 0 
-70 -80 -93 0 
70 80 93 -85 0 
70 80 -93 85 0 
70 -80 93 85 0 
-70 80 93 85 0 
-70 -85 -55 0 
70 85 -55 0 
70 -85 55 0 
-70 85 55 0 
-29 -2 -81 0 
29 2 -81 0 
29 -2 81 0 
-29 2 81 0 
-15 -78 -83 0 
-57 -78 -83 0 
-57 -15 -83 0 
-57 -15 -78 0 
57 15 78 -83 0 
57 15 -78 83 0 
57 -15 78 83 0 
-57 15 78 83 0 
-25 -90 -52 0 
-20 -90 -52 0 
-20 -25 -52 0 
-20 -25 -90 0 
20 25 90 -52 0 
20 25 -90 52 0 
20 -25 90 52 0 
-20 25 90 52 0 
-16 -25 -20 0 
-39 -25 -20 0 
-39 -16 -20 0 
-39 -16 -25 0 
39 16 25 -20 0 
39 16 -25 20 0 
39 -16 25 20 0 
-39 16 25 20 0 
-31 -87 -23 0 
-34 -87 -23 0 
-34 -31 -23 0 
-34 -31 -87 0 
34 31 87 -23 0 
34 31 -87 23 0 
34 -31 87 23 0 
-34 31 87 23 0 
-78 -58 -38 0 
-83 -58 -38 0 
-83 -78 -38 0 
-83 -78 -58 0 
83 78 58 -38 0 
83 78 -58 38 0 
83 -78 58 38 0 
-83 78 58 38 0 
-89 -34 -23 0 
89 34 -23 0 
89 -34 23 0 
-89 34 23 0 
-21 -68 -9 0 
21 68 -9 0 
21 -68 9 0 
-21 68 9 0 
-60 -21 -27 0 
60 21 -27 0 
60 -21 27 0 
-60 21 27 0 
-61 -73 -36 0 
61 73 -36 0 
61 -73 36 0 
-61 73 36 0 
-71 -61 -8 0 
-6 -61 -8 0 
-6 -71 -8 0 
-6 -71 -61 0 
6 71 61 -8 0 
6 71 -61 8 0 
6 -71 61 8 0 
-6 71 61 8 0 
-64 -94 -31 0 
-5 -94 -31 0 
-5 -64 -31 0 
-5 -64 -94 0 
5 64 94 -31 0 
5 64 -94 31 0 
5 -64 94 31 0 
-5 64 94 31 0 
-69 -96 -63 0 
-41 -96 -63 0 
-41 -69 -63 0 
-41 -69 -96 0 
41 69 96 -63 0 
41 69 -96 63 0 
41 -69 96 63 0 
-41 69 96 63 0 
82 17 0 
-82 -17 0 
-24 -5 -93 0 
-80 -5 -93 0 
-80 -24 -93 0 
-80 -24 -5 0 
80 24 5 -93 0 
80 24 -5 93 0 
80 -24 5 93 0 
-80 24 5 93 0 
-48 -7 -86 0 
48 7 -86 0 
48 -7 86 0 
-48 7 86 0 
-90 -75 -100 0 
-52 -75 -100 0 
-52 -90 -100 0 
-52 -90 -75 0 
52 90 75 -100 0 
52 90 -75 100 0 
52 -90 75 100 0 
-52 90 75 100 0 
-95 -30 -22 0 
-76 -30 -22 0 
-76 -95 -22 0 
-76 -95 -30 0 
76 95 30 -22 0 
76 95 -30 22 0 
76 -95 30 22 0 
-76 95 30 22 0 
-23 -87 -53 0 
23 87 -53 0 
23 -87 53 0 
-23 87 53 0 
-26 -67 -51 0 
-47 -67 -51 0 
-47 -26 -51 0 
-47 -26 -67 0 
47 26 67 -51 0 
47 26 -67 51 0 
47 -26 67 51 0 
-47 26 67 51 0 
-98 -36 -28 0 
98 36 -28 0 
98 -36 28 0 
-98 36 28 0 
-6 -8 -33 0 
-88 -8 -33 0 
-88 -6 -33 0 
-88 -6 -8 0 
88 6 8 -33 0 
88 6 -8 33 0 
88 -6 8 33 0 
-88 6 8 33 0 
-90 -56 -75 0 
90 56 -75 0 
90 -56 75 0 
-90 56 75 0 
-33 -42 -30 0 
-95 -42 -30 0 
-95 -33 -30 0 
-95 -33 -42 0 
95 33 42 -30 0 
95 33 -42 30 0 
95 -33 42 30 0 
-95 33 42 30 0 
-88 -33 -95 0 
-99 -33 -95 0 
-99 -88 -95 0 
-99 -88 -33 0 
99 88 33 -95 0 
99 88 -33 95 0 
99 -88 33 95 0 
-99 88 33 95 0 
-93 -34 -89 0 
-85 -34 -89 0 
-85 -93 -89 0 
-85 -93 -34 0 
85 93 34 -89 0 
85 93 -34 89 0 
85 -93 34 89 0 
-85 93 34 89 0 
-76 -22 -77 0 
-67 -22 -77 0 
-67 -76 -77 0 
-67 -76 -22 0 
67 76 22 -77 0 
67 76 -22 77 0 
67 -76 22 77 0 
-67 76 22 77 0 
-47 -51 -72 0 
-59 -51 -72 0 
-59 -47 -72 0 
-59 -47 -51 0 
59 47 51 -72 0 
59 47 -51 72 0 
59 -47 51 72 0 
-59 47 51 72 0 
-39 -20 -94 0 
-64 -20 -94 0 
-64 -39 -94 0 
-64 -39 -20 0 
64 39 20 -94 0 
64 39 -20 94 0 
64 -39 20 94 0 
-64 39 20 94 0 
-100 -17 -82 0 
-84 -17 -82 0 
-84 -100 -82 0 
-84 -100 -17 0 
84 100 17 -82 0 
84 100 -17 82 0 
84 -100 17 82 0 
-84 100 17 82 0 
-5 -31 -34 0 
-93 -31 -34 0 
-93 -5 -34 0 
-93 -5 -31 0 
93 5 31 -34 0 
93 5 -31 34 0 
93 -5 31 34 0 
-93 5 31 34 0 
-96 -18 -44 0 
96 18 -44 0 
96 -18 44 0 
-96 18 44 0 
-45 -6 -88 0 
-50 -6 -88 0 
-50 -45 -88 0 
-50 -45 -6 0 
50 45 6 -88 0 
50 45 -6 88 0 
50 -45 6 88 0 
-50 45 6 88 0 
-14 -11 -74 0 
-54 -11 -74 0 
-54 -14 -74 0 
-54 -14 -11 0 
54 14 11 -74 0 
54 14 -11 74 0 
54 -14 11 74 0 
-54 14 11 74 0 
-86 -80 -70 0 
86 80 -70 0 
86 -80 70 0 
-86 80 70 0 
-2 -66 -92 0 
-81 -66 -92 0 
-81 -2 -92 0 
-81 -2 -66 0 
81 2 66 -92 0 
81 2 -66 92 0 
81 -2 66 92 0 
-81 2 66 92 0 
-92 -79 -12 0 
-35 -79 -12 0 
-35 -92 -12 0 
-35 -92 -79 0 
35 92 79 -12 0 
35 92 -79 12 0 
35 -92 79 12 0 
-35 92 79 12 0 
-79 -99 -3 0 
-12 -99 -3 0 
-12 -79 -3 0 
-12 -79 -99 0 
12 79 99 -3 0 
12 79 -99 3 0 
12 -79 99 3 0 
-12 79 99 3 0 
-46 -71 -6 0 
-45 -71 -6 0 
-45 -46 -6 0 
-45 -46 -71 0 
45 46 71 -6 0 
45 46 -71 6 0 
45 -46 71 6 0 
-45 46 71 6 0 
-1 -45 -50 0 
-66 -45 -50 0 
-66 -1 -50 0 
-66 -1 -45 0 
66 1 45 -50 0 
66 1 -45 50 0 
66 -1 45 50 0 
-66 1 45 50 0 
-42 -91 -69 0 
-30 -91 -69 0 
-30 -42 -69 0 
-30 -42 -91 0 
30 42 91 -69 0 
30 42 -91 69 0 
30 -42 91 69 0 
-30 42 91 69 0 
-61 -36 -98 0 
-8 -36 -98 0 
-8 -61 -98 0 
-8 -61 -36 0 
8 61 36 -98 0 
8 61 -36 98 0 
8 -61 36 98 0 
-8 61 36 98 0 
-94 -97 -87 0 
-31 -97 -87 0 
-31 -94 -87 0 
-31 -94 -97 0 
31 94 97 -87 0 
31 94 -97 87 0 
31 -94 97 87 0 
-31 94 97 87 0 
-7 -24 -80 0 
-86 -24 -80 0 
-86 -7 -80 0 
-86 -7 -24 0 
86 7 24 -80 0 
86 7 -24 80 0 
86 -7 24 80 0 
-86 7 24 80 0 
-97 -84 -53 0 
-87 -84 -53 0 
-87 -97 -53 0 
-87 -97 -84 0 
87 97 84 -53 0 
87 97 -84 53 0 
87 -97 84 53 0 
-87 97 84 53 0 
-37 -47 -59 0 
37 47 -59 0 
37 -47 59 0 
-37 47 59 0 
-40 -39 -64 0 
-65 -39 -64 0 
-65 -40 -64 0 
-65 -40 -39 0 
65 40 39 -64 0 
65 40 -39 64 0 
65 -40 39 64 0 
-65 40 39 64 0 
-43 -4 -37 0 
43 4 -37 0 
43 -4 37 0 
-43 4 37 0 
-19 -41 -63 0 
19 41 -63 0 
19 -41 63 0 
-19 41 63 0 
-67 -77 -32 0 
-51 -77 -32 0 
-51 -67 -32 0 
-51 -67 -77 0 
51 67 77 -32 0 
51 67 -77 32 0 
51 -67 77 32 0 
-51 67 77 32 0 
-35 -12 -4 0 
-43 -12 -4 0 
-43 -35 -4 0 
-43 -35 -12 0 
43 35 12 -4 0 
43 35 -12 4 0 
43 -35 12 4 0 
-43 35 12 4 0 
